32	0

0	1	2
3	2	3	4
10	1	5
1	1	5
4	1	6
5	2	7	8
5	1	9
5	1	9
3	1	10
2	1	11
10	1	12
8	1	13
9	1	14
7	1	15
3	1	16
7	1	17
6	2	18	19
7	1	20
5	1	20
6	1	21
9	2	22	23
9	1	24
9	1	24
5	2	25	26
7	1	27
7	1	27
3	1	28
2	1	29
6	1	30
9	1	31
7	1	32
0	0
